c File: instances/32_0.15_1.col
c
c Description: Random graph of size 32 vertices and P(0.15000000000000002) of edges between any two vertices.
p col 32 496
e 1 12
e 1 14
e 1 15
e 1 17
e 1 22
e 1 23
e 1 25
e 1 30
e 1 31
e 2 4
e 2 7
e 2 8
e 2 9
e 2 15
e 2 22
e 2 24
e 2 27
e 2 29
e 3 6
e 3 9
e 3 13
e 3 15
e 3 22
e 3 28
e 4 6
e 4 16
e 4 17
e 4 20
e 4 23
e 4 31
e 5 10
e 5 18
e 6 7
e 6 8
e 6 13
e 6 20
e 6 21
e 6 23
e 6 26
e 6 31
e 6 32
e 7 8
e 7 10
e 7 18
e 7 19
e 7 21
e 7 22
e 7 23
e 7 24
e 7 29
e 8 18
e 8 29
e 9 18
e 9 27
e 10 17
e 10 20
e 10 21
e 10 26
e 10 27
e 10 29
e 11 15
e 11 18
e 11 19
e 11 21
e 11 22
e 11 26
e 11 31
e 12 13
e 12 22
e 12 23
e 12 29
e 13 27
e 13 32
e 14 16
e 14 24
e 14 25
e 14 29
e 14 32
e 15 17
e 15 26
e 17 22
e 17 28
e 17 29
e 17 32
e 18 20
e 18 22
e 18 29
e 19 20
e 19 25
e 19 31
e 20 22
e 20 23
e 20 30
e 21 22
e 21 25
e 21 28
e 22 24
e 22 26
e 22 31
e 23 30
e 23 31
e 24 30
e 25 28
e 26 29
e 27 32
e 29 32
e 31 32